Route #1: 26 5 28 9 29 3 24 
Route #2: 13 15 
Route #3: 20 32 27 34 22 18 21 23 1 
Route #4: 30 10 16 4 33 25 35 
Route #5: 11 6 17 36 
Route #6: 12 38 37 31 14 2 19 8 7 
cost 871.153
execution_time 13.141
